p cnf 941 2607
a 1 2 3 4 5 6 7 8 9 10 11 12 13 14 15 16 17 18 19 20 21 22 23 24 25 26 27 28 29 30 31 32 33 34 35 36 37 38 39 40 41 42 43 44 45 46 47 48 49 50 51 52 53 54 55 56 57 58 59 60 61 62 63 64 0
e 65 66 67 68 69 70 71 72 73 74 75 76 77 78 79 80 81 82 83 84 85 86 87 88 89 90 91 92 93 94 95 96 97 98 99 100 101 102 103 104 105 106 107 108 109 110 111 112 113 114 115 116 117 118 119 120 121 122 123 124 125 126 127 128 129 130 131 132 133 134 135 136 137 138 139 140 141 142 143 144 145 146 147 148 149 150 151 152 153 154 155 156 157 158 159 160 161 162 163 164 165 166 167 168 169 170 171 172 173 174 175 176 177 178 179 180 181 182 183 184 185 186 187 188 189 190 191 192 193 194 195 196 197 198 199 200 201 202 203 204 205 206 207 208 209 210 211 212 213 214 215 216 217 218 219 220 221 222 223 224 225 226 227 228 229 230 231 232 233 234 235 236 237 238 239 240 241 242 243 244 245 246 247 248 249 250 251 252 253 254 255 256 257 258 259 260 261 262 263 264 265 266 267 268 269 270 271 272 273 274 275 276 277 278 279 280 281 282 283 284 285 286 287 288 289 290 291 292 293 294 295 296 297 298 299 300 301 302 303 304 305 306 307 308 309 310 311 312 313 314 315 316 317 318 319 320 321 322 323 324 325 326 327 328 329 330 331 332 333 334 335 336 337 338 339 340 341 342 343 344 345 346 347 348 349 350 351 352 353 354 355 356 357 358 359 360 361 362 363 364 365 366 367 368 369 370 371 372 373 374 375 376 377 378 379 380 381 382 383 384 385 386 387 388 389 390 391 392 393 394 395 396 397 398 399 400 401 402 403 404 405 406 407 408 409 410 411 412 413 414 415 416 417 418 419 420 421 422 423 424 425 426 427 428 429 430 431 432 433 434 435 436 437 438 439 440 441 442 443 444 445 446 447 448 449 450 451 452 453 454 455 456 457 458 459 460 461 462 463 464 465 466 467 468 469 470 471 472 473 474 475 476 477 478 479 480 481 482 483 484 485 486 487 488 489 490 491 492 493 494 495 496 497 498 499 500 501 502 503 504 505 506 507 508 509 510 511 512 513 514 515 516 517 518 519 520 521 522 523 524 525 526 527 528 529 530 531 532 533 534 535 536 537 538 539 540 541 542 543 544 545 546 547 548 549 550 551 552 553 554 555 556 557 558 559 560 561 562 563 564 565 566 567 568 569 570 571 572 573 574 575 576 577 578 579 580 581 582 583 584 585 586 587 588 589 590 591 592 593 594 595 596 597 598 599 600 601 602 603 604 605 606 607 608 609 610 611 612 613 614 615 616 617 618 619 620 621 622 623 624 625 626 627 628 629 630 631 632 633 634 635 636 637 638 639 640 641 642 643 644 645 646 647 648 649 650 651 652 653 654 655 656 657 658 659 660 661 662 663 664 665 666 667 668 669 670 671 672 673 674 675 676 677 678 679 680 681 682 683 684 685 686 687 688 689 690 691 692 693 694 695 696 697 698 699 700 701 702 703 704 705 706 707 708 709 710 711 712 713 714 715 716 717 718 719 720 721 722 723 724 725 726 727 728 729 730 731 732 733 734 735 736 737 738 739 740 741 742 743 744 745 746 747 748 749 750 751 752 753 754 755 756 757 758 759 760 761 762 763 764 765 766 767 768 769 770 771 772 773 774 775 776 777 778 779 780 781 782 783 784 785 786 787 788 789 790 791 792 793 794 795 796 797 798 799 800 801 802 803 804 805 806 807 808 809 810 811 812 813 814 815 816 817 818 819 820 821 822 823 824 825 826 827 828 829 830 831 832 833 834 835 836 837 838 839 840 841 842 843 844 845 846 847 848 849 850 851 852 853 854 855 856 857 858 859 860 861 862 863 864 865 866 867 868 869 870 871 872 873 874 875 876 877 878 879 880 881 882 883 884 885 886 887 888 889 890 891 892 893 894 895 896 897 898 899 900 901 902 903 904 905 906 907 908 909 910 911 912 913 914 915 916 917 918 919 920 921 922 923 924 925 926 927 928 929 930 931 932 933 934 935 936 937 938 939 0
81 65 0
-81 -65 0
82 -66 -81 0
82 66 81 0
-82 -66 81 0
-82 66 -81 0
83 66 -81 0
-83 81 0
-83 -66 0
84 -83 0
-84 83 0
85 -67 -84 0
85 67 84 0
-85 -67 84 0
-85 67 -84 0
86 67 -84 0
-86 84 0
-86 -67 0
87 -86 0
-87 86 0
88 -68 -87 0
88 68 87 0
-88 -68 87 0
-88 68 -87 0
89 68 -87 0
-89 87 0
-89 -68 0
90 -89 0
-90 89 0
91 -69 -90 0
91 69 90 0
-91 -69 90 0
-91 69 -90 0
92 69 -90 0
-92 90 0
-92 -69 0
93 -92 0
-93 92 0
94 -70 -93 0
94 70 93 0
-94 -70 93 0
-94 70 -93 0
95 70 -93 0
-95 93 0
-95 -70 0
96 -95 0
-96 95 0
97 -71 -96 0
97 71 96 0
-97 -71 96 0
-97 71 -96 0
98 71 -96 0
-98 96 0
-98 -71 0
99 -98 0
-99 98 0
100 -72 -99 0
100 72 99 0
-100 -72 99 0
-100 72 -99 0
101 72 -99 0
-101 99 0
-101 -72 0
102 -101 0
-102 101 0
103 -73 -102 0
103 73 102 0
-103 -73 102 0
-103 73 -102 0
104 73 -102 0
-104 102 0
-104 -73 0
105 -104 0
-105 104 0
106 -74 -105 0
106 74 105 0
-106 -74 105 0
-106 74 -105 0
107 74 -105 0
-107 105 0
-107 -74 0
108 -107 0
-108 107 0
109 -75 -108 0
109 75 108 0
-109 -75 108 0
-109 75 -108 0
110 75 -108 0
-110 108 0
-110 -75 0
111 -110 0
-111 110 0
112 -76 -111 0
112 76 111 0
-112 -76 111 0
-112 76 -111 0
113 76 -111 0
-113 111 0
-113 -76 0
114 -113 0
-114 113 0
115 -77 -114 0
115 77 114 0
-115 -77 114 0
-115 77 -114 0
116 77 -114 0
-116 114 0
-116 -77 0
117 -116 0
-117 116 0
118 -78 -117 0
118 78 117 0
-118 -78 117 0
-118 78 -117 0
119 78 -117 0
-119 117 0
-119 -78 0
120 -119 0
-120 119 0
121 -79 -120 0
121 79 120 0
-121 -79 120 0
-121 79 -120 0
122 79 -120 0
-122 120 0
-122 -79 0
123 -122 0
-123 122 0
124 -80 -123 0
124 80 123 0
-124 -80 123 0
-124 80 -123 0
125 80 -123 0
-125 123 0
-125 -80 0
126 -125 0
-126 125 0
127 -124 0
127 -121 0
127 -118 0
127 -115 0
127 -112 0
127 -109 0
127 -106 0
127 -103 0
127 -100 0
127 -97 0
127 -94 0
127 -91 0
127 -88 0
127 -85 0
127 -82 0
127 -65 0
-127 65 82 85 88 91 94 97 100 103 106 109 112 115 118 121 124 0
128 127 0
128 126 0
-128 -126 -127 0
130 0
-130 128 -129 0
131 65 0
-131 -65 0
132 66 -131 0
-132 131 0
-132 -66 0
133 -132 0
-133 132 0
134 67 -133 0
-134 133 0
-134 -67 0
135 -134 0
-135 134 0
136 68 -135 0
-136 135 0
-136 -68 0
137 -136 0
-137 136 0
138 69 -137 0
-138 137 0
-138 -69 0
139 -138 0
-139 138 0
140 70 -139 0
-140 139 0
-140 -70 0
141 -140 0
-141 140 0
142 71 -141 0
-142 141 0
-142 -71 0
143 -142 0
-143 142 0
144 72 -143 0
-144 143 0
-144 -72 0
145 -144 0
-145 144 0
146 73 -145 0
-146 145 0
-146 -73 0
147 -146 0
-147 146 0
148 74 -147 0
-148 147 0
-148 -74 0
149 -148 0
-149 148 0
150 75 -149 0
-150 149 0
-150 -75 0
151 -150 0
-151 150 0
152 76 -151 0
-152 151 0
-152 -76 0
153 -152 0
-153 152 0
154 77 -153 0
-154 153 0
-154 -77 0
155 -154 0
-155 154 0
156 78 -155 0
-156 155 0
-156 -78 0
157 -156 0
-157 156 0
158 79 -157 0
-158 157 0
-158 -79 0
159 -158 0
-159 158 0
160 80 -159 0
-160 159 0
-160 -80 0
161 -160 0
-161 160 0
162 0
-162 -129 161 0
179 -163 -164 -165 -166 -167 -168 -169 -170 -171 -172 -173 -174 -175 -176 -177 -178 0
-179 178 0
-179 177 0
-179 176 0
-179 175 0
-179 174 0
-179 173 0
-179 172 0
-179 171 0
-179 170 0
-179 169 0
-179 168 0
-179 167 0
-179 166 0
-179 165 0
-179 164 0
-179 163 0
212 180 -196 0
212 -180 196 0
-212 180 196 0
-212 -180 -196 0
213 181 -197 0
213 -181 197 0
-213 181 197 0
-213 -181 -197 0
214 182 -198 0
214 -182 198 0
-214 182 198 0
-214 -182 -198 0
215 183 -199 0
215 -183 199 0
-215 183 199 0
-215 -183 -199 0
216 184 -200 0
216 -184 200 0
-216 184 200 0
-216 -184 -200 0
217 185 -201 0
217 -185 201 0
-217 185 201 0
-217 -185 -201 0
218 186 -202 0
218 -186 202 0
-218 186 202 0
-218 -186 -202 0
219 187 -203 0
219 -187 203 0
-219 187 203 0
-219 -187 -203 0
220 188 -204 0
220 -188 204 0
-220 188 204 0
-220 -188 -204 0
221 189 -205 0
221 -189 205 0
-221 189 205 0
-221 -189 -205 0
222 190 -206 0
222 -190 206 0
-222 190 206 0
-222 -190 -206 0
223 191 -207 0
223 -191 207 0
-223 191 207 0
-223 -191 -207 0
224 192 -208 0
224 -192 208 0
-224 192 208 0
-224 -192 -208 0
225 193 -209 0
225 -193 209 0
-225 193 209 0
-225 -193 -209 0
226 194 -210 0
226 -194 210 0
-226 194 210 0
-226 -194 -210 0
227 195 -211 0
227 -195 211 0
-227 195 211 0
-227 -195 -211 0
228 212 213 214 215 216 217 218 219 220 221 222 223 224 225 226 227 0
-228 -227 0
-228 -226 0
-228 -225 0
-228 -224 0
-228 -223 0
-228 -222 0
-228 -221 0
-228 -220 0
-228 -219 0
-228 -218 0
-228 -217 0
-228 -216 0
-228 -215 0
-228 -214 0
-228 -213 0
-228 -212 0
261 229 -245 0
261 -229 245 0
-261 229 245 0
-261 -229 -245 0
262 230 -246 0
262 -230 246 0
-262 230 246 0
-262 -230 -246 0
263 231 -247 0
263 -231 247 0
-263 231 247 0
-263 -231 -247 0
264 232 -248 0
264 -232 248 0
-264 232 248 0
-264 -232 -248 0
265 233 -249 0
265 -233 249 0
-265 233 249 0
-265 -233 -249 0
266 234 -250 0
266 -234 250 0
-266 234 250 0
-266 -234 -250 0
267 235 -251 0
267 -235 251 0
-267 235 251 0
-267 -235 -251 0
268 236 -252 0
268 -236 252 0
-268 236 252 0
-268 -236 -252 0
269 237 -253 0
269 -237 253 0
-269 237 253 0
-269 -237 -253 0
270 238 -254 0
270 -238 254 0
-270 238 254 0
-270 -238 -254 0
271 239 -255 0
271 -239 255 0
-271 239 255 0
-271 -239 -255 0
272 240 -256 0
272 -240 256 0
-272 240 256 0
-272 -240 -256 0
273 241 -257 0
273 -241 257 0
-273 241 257 0
-273 -241 -257 0
274 242 -258 0
274 -242 258 0
-274 242 258 0
-274 -242 -258 0
275 243 -259 0
275 -243 259 0
-275 243 259 0
-275 -243 -259 0
276 244 -260 0
276 -244 260 0
-276 244 260 0
-276 -244 -260 0
277 261 262 263 264 265 266 267 268 269 270 271 272 273 274 275 276 0
-277 -276 0
-277 -275 0
-277 -274 0
-277 -273 0
-277 -272 0
-277 -271 0
-277 -270 0
-277 -269 0
-277 -268 0
-277 -267 0
-277 -266 0
-277 -265 0
-277 -264 0
-277 -263 0
-277 -262 0
-277 -261 0
278 164 0
-278 -164 0
279 -165 -278 0
279 165 278 0
-279 -165 278 0
-279 165 -278 0
280 165 -278 0
-280 278 0
-280 -165 0
281 -280 0
-281 280 0
282 -166 -281 0
282 166 281 0
-282 -166 281 0
-282 166 -281 0
283 166 -281 0
-283 281 0
-283 -166 0
284 -283 0
-284 283 0
285 -167 -284 0
285 167 284 0
-285 -167 284 0
-285 167 -284 0
286 167 -284 0
-286 284 0
-286 -167 0
287 -286 0
-287 286 0
288 -168 -287 0
288 168 287 0
-288 -168 287 0
-288 168 -287 0
289 168 -287 0
-289 287 0
-289 -168 0
290 -289 0
-290 289 0
291 -169 -290 0
291 169 290 0
-291 -169 290 0
-291 169 -290 0
292 169 -290 0
-292 290 0
-292 -169 0
293 -292 0
-293 292 0
294 -170 -293 0
294 170 293 0
-294 -170 293 0
-294 170 -293 0
295 170 -293 0
-295 293 0
-295 -170 0
296 -295 0
-296 295 0
297 -171 -296 0
297 171 296 0
-297 -171 296 0
-297 171 -296 0
298 171 -296 0
-298 296 0
-298 -171 0
299 -298 0
-299 298 0
300 -172 -299 0
300 172 299 0
-300 -172 299 0
-300 172 -299 0
301 172 -299 0
-301 299 0
-301 -172 0
302 -301 0
-302 301 0
303 -173 -302 0
303 173 302 0
-303 -173 302 0
-303 173 -302 0
304 173 -302 0
-304 302 0
-304 -173 0
305 -304 0
-305 304 0
306 -174 -305 0
306 174 305 0
-306 -174 305 0
-306 174 -305 0
307 174 -305 0
-307 305 0
-307 -174 0
308 -307 0
-308 307 0
309 -175 -308 0
309 175 308 0
-309 -175 308 0
-309 175 -308 0
310 175 -308 0
-310 308 0
-310 -175 0
311 -310 0
-311 310 0
312 -176 -311 0
312 176 311 0
-312 -176 311 0
-312 176 -311 0
313 176 -311 0
-313 311 0
-313 -176 0
314 -313 0
-314 313 0
315 -177 -314 0
315 177 314 0
-315 -177 314 0
-315 177 -314 0
316 177 -314 0
-316 314 0
-316 -177 0
317 -316 0
-317 316 0
318 -178 -317 0
318 178 317 0
-318 -178 317 0
-318 178 -317 0
319 178 -317 0
-319 317 0
-319 -178 0
320 -319 0
-320 319 0
321 65 -163 0
321 -65 163 0
-321 65 163 0
-321 -65 -163 0
322 -65 -163 0
-322 163 0
-322 65 0
323 -163 0
323 -65 0
323 -322 0
-323 65 163 322 0
324 66 164 0
324 -66 -164 0
-324 66 -164 0
-324 -66 164 0
325 -323 324 0
325 323 -324 0
-325 323 324 0
-325 -323 -324 0
326 -66 164 0
-326 -164 0
-326 66 0
327 -66 -323 0
-327 323 0
-327 66 0
328 164 -323 0
-328 323 0
-328 -164 0
329 -328 0
329 -327 0
329 -326 0
-329 326 327 328 0
330 67 279 0
330 -67 -279 0
-330 67 -279 0
-330 -67 279 0
331 -329 330 0
331 329 -330 0
-331 329 330 0
-331 -329 -330 0
332 -67 279 0
-332 -279 0
-332 67 0
333 -67 -329 0
-333 329 0
-333 67 0
334 279 -329 0
-334 329 0
-334 -279 0
335 -334 0
335 -333 0
335 -332 0
-335 332 333 334 0
336 68 282 0
336 -68 -282 0
-336 68 -282 0
-336 -68 282 0
337 -335 336 0
337 335 -336 0
-337 335 336 0
-337 -335 -336 0
338 -68 282 0
-338 -282 0
-338 68 0
339 -68 -335 0
-339 335 0
-339 68 0
340 282 -335 0
-340 335 0
-340 -282 0
341 -340 0
341 -339 0
341 -338 0
-341 338 339 340 0
342 69 285 0
342 -69 -285 0
-342 69 -285 0
-342 -69 285 0
343 -341 342 0
343 341 -342 0
-343 341 342 0
-343 -341 -342 0
344 -69 285 0
-344 -285 0
-344 69 0
345 -69 -341 0
-345 341 0
-345 69 0
346 285 -341 0
-346 341 0
-346 -285 0
347 -346 0
347 -345 0
347 -344 0
-347 344 345 346 0
348 70 288 0
348 -70 -288 0
-348 70 -288 0
-348 -70 288 0
349 -347 348 0
349 347 -348 0
-349 347 348 0
-349 -347 -348 0
350 -70 288 0
-350 -288 0
-350 70 0
351 -70 -347 0
-351 347 0
-351 70 0
352 288 -347 0
-352 347 0
-352 -288 0
353 -352 0
353 -351 0
353 -350 0
-353 350 351 352 0
354 71 291 0
354 -71 -291 0
-354 71 -291 0
-354 -71 291 0
355 -353 354 0
355 353 -354 0
-355 353 354 0
-355 -353 -354 0
356 -71 291 0
-356 -291 0
-356 71 0
357 -71 -353 0
-357 353 0
-357 71 0
358 291 -353 0
-358 353 0
-358 -291 0
359 -358 0
359 -357 0
359 -356 0
-359 356 357 358 0
360 72 294 0
360 -72 -294 0
-360 72 -294 0
-360 -72 294 0
361 -359 360 0
361 359 -360 0
-361 359 360 0
-361 -359 -360 0
362 -72 294 0
-362 -294 0
-362 72 0
363 -72 -359 0
-363 359 0
-363 72 0
364 294 -359 0
-364 359 0
-364 -294 0
365 -364 0
365 -363 0
365 -362 0
-365 362 363 364 0
366 73 297 0
366 -73 -297 0
-366 73 -297 0
-366 -73 297 0
367 -365 366 0
367 365 -366 0
-367 365 366 0
-367 -365 -366 0
368 -73 297 0
-368 -297 0
-368 73 0
369 -73 -365 0
-369 365 0
-369 73 0
370 297 -365 0
-370 365 0
-370 -297 0
371 -370 0
371 -369 0
371 -368 0
-371 368 369 370 0
372 74 300 0
372 -74 -300 0
-372 74 -300 0
-372 -74 300 0
373 -371 372 0
373 371 -372 0
-373 371 372 0
-373 -371 -372 0
374 -74 300 0
-374 -300 0
-374 74 0
375 -74 -371 0
-375 371 0
-375 74 0
376 300 -371 0
-376 371 0
-376 -300 0
377 -376 0
377 -375 0
377 -374 0
-377 374 375 376 0
378 75 303 0
378 -75 -303 0
-378 75 -303 0
-378 -75 303 0
379 -377 378 0
379 377 -378 0
-379 377 378 0
-379 -377 -378 0
380 -75 303 0
-380 -303 0
-380 75 0
381 -75 -377 0
-381 377 0
-381 75 0
382 303 -377 0
-382 377 0
-382 -303 0
383 -382 0
383 -381 0
383 -380 0
-383 380 381 382 0
384 76 306 0
384 -76 -306 0
-384 76 -306 0
-384 -76 306 0
385 -383 384 0
385 383 -384 0
-385 383 384 0
-385 -383 -384 0
386 -76 306 0
-386 -306 0
-386 76 0
387 -76 -383 0
-387 383 0
-387 76 0
388 306 -383 0
-388 383 0
-388 -306 0
389 -388 0
389 -387 0
389 -386 0
-389 386 387 388 0
390 77 309 0
390 -77 -309 0
-390 77 -309 0
-390 -77 309 0
391 -389 390 0
391 389 -390 0
-391 389 390 0
-391 -389 -390 0
392 -77 309 0
-392 -309 0
-392 77 0
393 -77 -389 0
-393 389 0
-393 77 0
394 309 -389 0
-394 389 0
-394 -309 0
395 -394 0
395 -393 0
395 -392 0
-395 392 393 394 0
396 78 312 0
396 -78 -312 0
-396 78 -312 0
-396 -78 312 0
397 -395 396 0
397 395 -396 0
-397 395 396 0
-397 -395 -396 0
398 -78 312 0
-398 -312 0
-398 78 0
399 -78 -395 0
-399 395 0
-399 78 0
400 312 -395 0
-400 395 0
-400 -312 0
401 -400 0
401 -399 0
401 -398 0
-401 398 399 400 0
402 79 315 0
402 -79 -315 0
-402 79 -315 0
-402 -79 315 0
403 -401 402 0
403 401 -402 0
-403 401 402 0
-403 -401 -402 0
404 -79 315 0
-404 -315 0
-404 79 0
405 -79 -401 0
-405 401 0
-405 79 0
406 315 -401 0
-406 401 0
-406 -315 0
407 -406 0
407 -405 0
407 -404 0
-407 404 405 406 0
408 80 318 0
408 -80 -318 0
-408 80 -318 0
-408 -80 318 0
409 -407 408 0
409 407 -408 0
-409 407 408 0
-409 -407 -408 0
410 -80 318 0
-410 -318 0
-410 80 0
411 -80 -407 0
-411 407 0
-411 80 0
412 318 -407 0
-412 407 0
-412 -318 0
413 -412 0
413 -411 0
413 -410 0
-413 410 411 412 0
414 -321 325 0
-414 -325 0
-414 321 0
415 -321 -325 0
415 321 325 0
-415 321 -325 0
-415 -321 325 0
416 331 -414 0
-416 -331 0
-416 414 0
417 -331 -414 0
417 331 414 0
-417 -331 414 0
-417 331 -414 0
418 337 -416 0
-418 -337 0
-418 416 0
419 -337 -416 0
419 337 416 0
-419 -337 416 0
-419 337 -416 0
420 343 -418 0
-420 -343 0
-420 418 0
421 -343 -418 0
421 343 418 0
-421 -343 418 0
-421 343 -418 0
422 349 -420 0
-422 -349 0
-422 420 0
423 -349 -420 0
423 349 420 0
-423 -349 420 0
-423 349 -420 0
424 355 -422 0
-424 -355 0
-424 422 0
425 -355 -422 0
425 355 422 0
-425 -355 422 0
-425 355 -422 0
426 361 -424 0
-426 -361 0
-426 424 0
427 -361 -424 0
427 361 424 0
-427 -361 424 0
-427 361 -424 0
428 367 -426 0
-428 -367 0
-428 426 0
429 -367 -426 0
429 367 426 0
-429 -367 426 0
-429 367 -426 0
430 373 -428 0
-430 -373 0
-430 428 0
431 -373 -428 0
431 373 428 0
-431 -373 428 0
-431 373 -428 0
432 379 -430 0
-432 -379 0
-432 430 0
433 -379 -430 0
433 379 430 0
-433 -379 430 0
-433 379 -430 0
434 385 -432 0
-434 -385 0
-434 432 0
435 -385 -432 0
435 385 432 0
-435 -385 432 0
-435 385 -432 0
436 391 -434 0
-436 -391 0
-436 434 0
437 -391 -434 0
437 391 434 0
-437 -391 434 0
-437 391 -434 0
438 397 -436 0
-438 -397 0
-438 436 0
439 -397 -436 0
439 397 436 0
-439 -397 436 0
-439 397 -436 0
440 403 -438 0
-440 -403 0
-440 438 0
441 -403 -438 0
441 403 438 0
-441 -403 438 0
-441 403 -438 0
442 409 -440 0
-442 -409 0
-442 440 0
443 -409 -440 0
443 409 440 0
-443 -409 440 0
-443 409 -440 0
444 1 321 0
444 -1 -321 0
-444 1 -321 0
-444 -1 321 0
445 2 -415 0
445 -2 415 0
-445 2 415 0
-445 -2 -415 0
446 3 -417 0
446 -3 417 0
-446 3 417 0
-446 -3 -417 0
447 4 -419 0
447 -4 419 0
-447 4 419 0
-447 -4 -419 0
448 5 -421 0
448 -5 421 0
-448 5 421 0
-448 -5 -421 0
449 6 -423 0
449 -6 423 0
-449 6 423 0
-449 -6 -423 0
450 7 -425 0
450 -7 425 0
-450 7 425 0
-450 -7 -425 0
451 8 -427 0
451 -8 427 0
-451 8 427 0
-451 -8 -427 0
452 9 -429 0
452 -9 429 0
-452 9 429 0
-452 -9 -429 0
453 10 -431 0
453 -10 431 0
-453 10 431 0
-453 -10 -431 0
454 11 -433 0
454 -11 433 0
-454 11 433 0
-454 -11 -433 0
455 12 -435 0
455 -12 435 0
-455 12 435 0
-455 -12 -435 0
456 13 -437 0
456 -13 437 0
-456 13 437 0
-456 -13 -437 0
457 14 -439 0
457 -14 439 0
-457 14 439 0
-457 -14 -439 0
458 15 -441 0
458 -15 441 0
-458 15 441 0
-458 -15 -441 0
459 16 -443 0
459 -16 443 0
-459 16 443 0
-459 -16 -443 0
460 444 445 446 447 448 449 450 451 452 453 454 455 456 457 458 459 0
-460 -459 0
-460 -458 0
-460 -457 0
-460 -456 0
-460 -455 0
-460 -454 0
-460 -453 0
-460 -452 0
-460 -451 0
-460 -450 0
-460 -449 0
-460 -448 0
-460 -447 0
-460 -446 0
-460 -445 0
-460 -444 0
461 164 0
-461 -164 0
462 -279 -461 0
462 279 461 0
-462 -279 461 0
-462 279 -461 0
463 279 -461 0
-463 461 0
-463 -279 0
464 -463 0
-464 463 0
465 -282 -464 0
465 282 464 0
-465 -282 464 0
-465 282 -464 0
466 282 -464 0
-466 464 0
-466 -282 0
467 -466 0
-467 466 0
468 -285 -467 0
468 285 467 0
-468 -285 467 0
-468 285 -467 0
469 285 -467 0
-469 467 0
-469 -285 0
470 -469 0
-470 469 0
471 -288 -470 0
471 288 470 0
-471 -288 470 0
-471 288 -470 0
472 288 -470 0
-472 470 0
-472 -288 0
473 -472 0
-473 472 0
474 -291 -473 0
474 291 473 0
-474 -291 473 0
-474 291 -473 0
475 291 -473 0
-475 473 0
-475 -291 0
476 -475 0
-476 475 0
477 -294 -476 0
477 294 476 0
-477 -294 476 0
-477 294 -476 0
478 294 -476 0
-478 476 0
-478 -294 0
479 -478 0
-479 478 0
480 -297 -479 0
480 297 479 0
-480 -297 479 0
-480 297 -479 0
481 297 -479 0
-481 479 0
-481 -297 0
482 -481 0
-482 481 0
483 -300 -482 0
483 300 482 0
-483 -300 482 0
-483 300 -482 0
484 300 -482 0
-484 482 0
-484 -300 0
485 -484 0
-485 484 0
486 -303 -485 0
486 303 485 0
-486 -303 485 0
-486 303 -485 0
487 303 -485 0
-487 485 0
-487 -303 0
488 -487 0
-488 487 0
489 -306 -488 0
489 306 488 0
-489 -306 488 0
-489 306 -488 0
490 306 -488 0
-490 488 0
-490 -306 0
491 -490 0
-491 490 0
492 -309 -491 0
492 309 491 0
-492 -309 491 0
-492 309 -491 0
493 309 -491 0
-493 491 0
-493 -309 0
494 -493 0
-494 493 0
495 -312 -494 0
495 312 494 0
-495 -312 494 0
-495 312 -494 0
496 312 -494 0
-496 494 0
-496 -312 0
497 -496 0
-497 496 0
498 -315 -497 0
498 315 497 0
-498 -315 497 0
-498 315 -497 0
499 315 -497 0
-499 497 0
-499 -315 0
500 -499 0
-500 499 0
501 -318 -500 0
501 318 500 0
-501 -318 500 0
-501 318 -500 0
502 318 -500 0
-502 500 0
-502 -318 0
503 -502 0
-503 502 0
504 163 -321 0
504 -163 321 0
-504 -163 -321 0
-504 163 321 0
505 163 321 0
-505 -163 0
-505 -321 0
506 163 0
506 321 0
506 -505 0
-506 -163 -321 505 0
507 164 415 0
507 -164 -415 0
-507 -164 415 0
-507 164 -415 0
508 -506 507 0
508 506 -507 0
-508 506 507 0
-508 -506 -507 0
509 164 -415 0
-509 -164 0
-509 415 0
510 -415 -506 0
-510 506 0
-510 415 0
511 164 -506 0
-511 506 0
-511 -164 0
512 -511 0
512 -510 0
512 -509 0
-512 509 510 511 0
513 417 462 0
513 -417 -462 0
-513 417 -462 0
-513 -417 462 0
514 -512 513 0
514 512 -513 0
-514 512 513 0
-514 -512 -513 0
515 -417 462 0
-515 -462 0
-515 417 0
516 -417 -512 0
-516 512 0
-516 417 0
517 462 -512 0
-517 512 0
-517 -462 0
518 -517 0
518 -516 0
518 -515 0
-518 515 516 517 0
519 419 465 0
519 -419 -465 0
-519 419 -465 0
-519 -419 465 0
520 -518 519 0
520 518 -519 0
-520 518 519 0
-520 -518 -519 0
521 -419 465 0
-521 -465 0
-521 419 0
522 -419 -518 0
-522 518 0
-522 419 0
523 465 -518 0
-523 518 0
-523 -465 0
524 -523 0
524 -522 0
524 -521 0
-524 521 522 523 0
525 421 468 0
525 -421 -468 0
-525 421 -468 0
-525 -421 468 0
526 -524 525 0
526 524 -525 0
-526 524 525 0
-526 -524 -525 0
527 -421 468 0
-527 -468 0
-527 421 0
528 -421 -524 0
-528 524 0
-528 421 0
529 468 -524 0
-529 524 0
-529 -468 0
530 -529 0
530 -528 0
530 -527 0
-530 527 528 529 0
531 423 471 0
531 -423 -471 0
-531 423 -471 0
-531 -423 471 0
532 -530 531 0
532 530 -531 0
-532 530 531 0
-532 -530 -531 0
533 -423 471 0
-533 -471 0
-533 423 0
534 -423 -530 0
-534 530 0
-534 423 0
535 471 -530 0
-535 530 0
-535 -471 0
536 -535 0
536 -534 0
536 -533 0
-536 533 534 535 0
537 425 474 0
537 -425 -474 0
-537 425 -474 0
-537 -425 474 0
538 -536 537 0
538 536 -537 0
-538 536 537 0
-538 -536 -537 0
539 -425 474 0
-539 -474 0
-539 425 0
540 -425 -536 0
-540 536 0
-540 425 0
541 474 -536 0
-541 536 0
-541 -474 0
542 -541 0
542 -540 0
542 -539 0
-542 539 540 541 0
543 427 477 0
543 -427 -477 0
-543 427 -477 0
-543 -427 477 0
544 -542 543 0
544 542 -543 0
-544 542 543 0
-544 -542 -543 0
545 -427 477 0
-545 -477 0
-545 427 0
546 -427 -542 0
-546 542 0
-546 427 0
547 477 -542 0
-547 542 0
-547 -477 0
548 -547 0
548 -546 0
548 -545 0
-548 545 546 547 0
549 429 480 0
549 -429 -480 0
-549 429 -480 0
-549 -429 480 0
550 -548 549 0
550 548 -549 0
-550 548 549 0
-550 -548 -549 0
551 -429 480 0
-551 -480 0
-551 429 0
552 -429 -548 0
-552 548 0
-552 429 0
553 480 -548 0
-553 548 0
-553 -480 0
554 -553 0
554 -552 0
554 -551 0
-554 551 552 553 0
555 431 483 0
555 -431 -483 0
-555 431 -483 0
-555 -431 483 0
556 -554 555 0
556 554 -555 0
-556 554 555 0
-556 -554 -555 0
557 -431 483 0
-557 -483 0
-557 431 0
558 -431 -554 0
-558 554 0
-558 431 0
559 483 -554 0
-559 554 0
-559 -483 0
560 -559 0
560 -558 0
560 -557 0
-560 557 558 559 0
561 433 486 0
561 -433 -486 0
-561 433 -486 0
-561 -433 486 0
562 -560 561 0
562 560 -561 0
-562 560 561 0
-562 -560 -561 0
563 -433 486 0
-563 -486 0
-563 433 0
564 -433 -560 0
-564 560 0
-564 433 0
565 486 -560 0
-565 560 0
-565 -486 0
566 -565 0
566 -564 0
566 -563 0
-566 563 564 565 0
567 435 489 0
567 -435 -489 0
-567 435 -489 0
-567 -435 489 0
568 -566 567 0
568 566 -567 0
-568 566 567 0
-568 -566 -567 0
569 -435 489 0
-569 -489 0
-569 435 0
570 -435 -566 0
-570 566 0
-570 435 0
571 489 -566 0
-571 566 0
-571 -489 0
572 -571 0
572 -570 0
572 -569 0
-572 569 570 571 0
573 437 492 0
573 -437 -492 0
-573 437 -492 0
-573 -437 492 0
574 -572 573 0
574 572 -573 0
-574 572 573 0
-574 -572 -573 0
575 -437 492 0
-575 -492 0
-575 437 0
576 -437 -572 0
-576 572 0
-576 437 0
577 492 -572 0
-577 572 0
-577 -492 0
578 -577 0
578 -576 0
578 -575 0
-578 575 576 577 0
579 439 495 0
579 -439 -495 0
-579 439 -495 0
-579 -439 495 0
580 -578 579 0
580 578 -579 0
-580 578 579 0
-580 -578 -579 0
581 -439 495 0
-581 -495 0
-581 439 0
582 -439 -578 0
-582 578 0
-582 439 0
583 495 -578 0
-583 578 0
-583 -495 0
584 -583 0
584 -582 0
584 -581 0
-584 581 582 583 0
585 441 498 0
585 -441 -498 0
-585 441 -498 0
-585 -441 498 0
586 -584 585 0
586 584 -585 0
-586 584 585 0
-586 -584 -585 0
587 -441 498 0
-587 -498 0
-587 441 0
588 -441 -584 0
-588 584 0
-588 441 0
589 498 -584 0
-589 584 0
-589 -498 0
590 -589 0
590 -588 0
590 -587 0
-590 587 588 589 0
591 443 501 0
591 -443 -501 0
-591 443 -501 0
-591 -443 501 0
592 -590 591 0
592 590 -591 0
-592 590 591 0
-592 -590 -591 0
593 -443 501 0
-593 -501 0
-593 443 0
594 -443 -590 0
-594 590 0
-594 443 0
595 501 -590 0
-595 590 0
-595 -501 0
596 -595 0
596 -594 0
596 -593 0
-596 593 594 595 0
597 -504 508 0
-597 -508 0
-597 504 0
598 -504 -508 0
598 504 508 0
-598 504 -508 0
-598 -504 508 0
599 514 -597 0
-599 -514 0
-599 597 0
600 -514 -597 0
600 514 597 0
-600 -514 597 0
-600 514 -597 0
601 520 -599 0
-601 -520 0
-601 599 0
602 -520 -599 0
602 520 599 0
-602 -520 599 0
-602 520 -599 0
603 526 -601 0
-603 -526 0
-603 601 0
604 -526 -601 0
604 526 601 0
-604 -526 601 0
-604 526 -601 0
605 532 -603 0
-605 -532 0
-605 603 0
606 -532 -603 0
606 532 603 0
-606 -532 603 0
-606 532 -603 0
607 538 -605 0
-607 -538 0
-607 605 0
608 -538 -605 0
608 538 605 0
-608 -538 605 0
-608 538 -605 0
609 544 -607 0
-609 -544 0
-609 607 0
610 -544 -607 0
610 544 607 0
-610 -544 607 0
-610 544 -607 0
611 550 -609 0
-611 -550 0
-611 609 0
612 -550 -609 0
612 550 609 0
-612 -550 609 0
-612 550 -609 0
613 556 -611 0
-613 -556 0
-613 611 0
614 -556 -611 0
614 556 611 0
-614 -556 611 0
-614 556 -611 0
615 562 -613 0
-615 -562 0
-615 613 0
616 -562 -613 0
616 562 613 0
-616 -562 613 0
-616 562 -613 0
617 568 -615 0
-617 -568 0
-617 615 0
618 -568 -615 0
618 568 615 0
-618 -568 615 0
-618 568 -615 0
619 574 -617 0
-619 -574 0
-619 617 0
620 -574 -617 0
620 574 617 0
-620 -574 617 0
-620 574 -617 0
621 580 -619 0
-621 -580 0
-621 619 0
622 -580 -619 0
622 580 619 0
-622 -580 619 0
-622 580 -619 0
623 586 -621 0
-623 -586 0
-623 621 0
624 -586 -621 0
624 586 621 0
-624 -586 621 0
-624 586 -621 0
625 592 -623 0
-625 -592 0
-625 623 0
626 -592 -623 0
626 592 623 0
-626 -592 623 0
-626 592 -623 0
627 33 504 0
627 -33 -504 0
-627 33 -504 0
-627 -33 504 0
628 34 -598 0
628 -34 598 0
-628 34 598 0
-628 -34 -598 0
629 35 -600 0
629 -35 600 0
-629 35 600 0
-629 -35 -600 0
630 36 -602 0
630 -36 602 0
-630 36 602 0
-630 -36 -602 0
631 37 -604 0
631 -37 604 0
-631 37 604 0
-631 -37 -604 0
632 38 -606 0
632 -38 606 0
-632 38 606 0
-632 -38 -606 0
633 39 -608 0
633 -39 608 0
-633 39 608 0
-633 -39 -608 0
634 40 -610 0
634 -40 610 0
-634 40 610 0
-634 -40 -610 0
635 41 -612 0
635 -41 612 0
-635 41 612 0
-635 -41 -612 0
636 42 -614 0
636 -42 614 0
-636 42 614 0
-636 -42 -614 0
637 43 -616 0
637 -43 616 0
-637 43 616 0
-637 -43 -616 0
638 44 -618 0
638 -44 618 0
-638 44 618 0
-638 -44 -618 0
639 45 -620 0
639 -45 620 0
-639 45 620 0
-639 -45 -620 0
640 46 -622 0
640 -46 622 0
-640 46 622 0
-640 -46 -622 0
641 47 -624 0
641 -47 624 0
-641 47 624 0
-641 -47 -624 0
642 48 -626 0
642 -48 626 0
-642 48 626 0
-642 -48 -626 0
643 627 628 629 630 631 632 633 634 635 636 637 638 639 640 641 642 0
-643 -642 0
-643 -641 0
-643 -640 0
-643 -639 0
-643 -638 0
-643 -637 0
-643 -636 0
-643 -635 0
-643 -634 0
-643 -633 0
-643 -632 0
-643 -631 0
-643 -630 0
-643 -629 0
-643 -628 0
-643 -627 0
644 17 163 0
644 -17 -163 0
-644 17 -163 0
-644 -17 163 0
645 18 -164 0
645 -18 164 0
-645 18 164 0
-645 -18 -164 0
646 19 -279 0
646 -19 279 0
-646 19 279 0
-646 -19 -279 0
647 20 -282 0
647 -20 282 0
-647 20 282 0
-647 -20 -282 0
648 21 -285 0
648 -21 285 0
-648 21 285 0
-648 -21 -285 0
649 22 -288 0
649 -22 288 0
-649 22 288 0
-649 -22 -288 0
650 23 -291 0
650 -23 291 0
-650 23 291 0
-650 -23 -291 0
651 24 -294 0
651 -24 294 0
-651 24 294 0
-651 -24 -294 0
652 25 -297 0
652 -25 297 0
-652 25 297 0
-652 -25 -297 0
653 26 -300 0
653 -26 300 0
-653 26 300 0
-653 -26 -300 0
654 27 -303 0
654 -27 303 0
-654 27 303 0
-654 -27 -303 0
655 28 -306 0
655 -28 306 0
-655 28 306 0
-655 -28 -306 0
656 29 -309 0
656 -29 309 0
-656 29 309 0
-656 -29 -309 0
657 30 -312 0
657 -30 312 0
-657 30 312 0
-657 -30 -312 0
658 31 -315 0
658 -31 315 0
-658 31 315 0
-658 -31 -315 0
659 32 -318 0
659 -32 318 0
-659 32 318 0
-659 -32 -318 0
660 644 645 646 647 648 649 650 651 652 653 654 655 656 657 658 659 0
-660 -659 0
-660 -658 0
-660 -657 0
-660 -656 0
-660 -655 0
-660 -654 0
-660 -653 0
-660 -652 0
-660 -651 0
-660 -650 0
-660 -649 0
-660 -648 0
-660 -647 0
-660 -646 0
-660 -645 0
-660 -644 0
661 49 -163 0
661 -49 163 0
-661 49 163 0
-661 -49 -163 0
662 50 -164 0
662 -50 164 0
-662 50 164 0
-662 -50 -164 0
663 51 -462 0
663 -51 462 0
-663 51 462 0
-663 -51 -462 0
664 52 -465 0
664 -52 465 0
-664 52 465 0
-664 -52 -465 0
665 53 -468 0
665 -53 468 0
-665 53 468 0
-665 -53 -468 0
666 54 -471 0
666 -54 471 0
-666 54 471 0
-666 -54 -471 0
667 55 -474 0
667 -55 474 0
-667 55 474 0
-667 -55 -474 0
668 56 -477 0
668 -56 477 0
-668 56 477 0
-668 -56 -477 0
669 57 -480 0
669 -57 480 0
-669 57 480 0
-669 -57 -480 0
670 58 -483 0
670 -58 483 0
-670 58 483 0
-670 -58 -483 0
671 59 -486 0
671 -59 486 0
-671 59 486 0
-671 -59 -486 0
672 60 -489 0
672 -60 489 0
-672 60 489 0
-672 -60 -489 0
673 61 -492 0
673 -61 492 0
-673 61 492 0
-673 -61 -492 0
674 62 -495 0
674 -62 495 0
-674 62 495 0
-674 -62 -495 0
675 63 -498 0
675 -63 498 0
-675 63 498 0
-675 -63 -498 0
676 64 -501 0
676 -64 501 0
-676 64 501 0
-676 -64 -501 0
677 661 662 663 664 665 666 667 668 669 670 671 672 673 674 675 676 0
-677 -676 0
-677 -675 0
-677 -674 0
-677 -673 0
-677 -672 0
-677 -671 0
-677 -670 0
-677 -669 0
-677 -668 0
-677 -667 0
-677 -666 0
-677 -665 0
-677 -664 0
-677 -663 0
-677 -662 0
-677 -661 0
678 -128 161 -179 -228 -277 -460 -643 -660 -677 0
-678 677 0
-678 660 0
-678 643 0
-678 460 0
-678 277 0
-678 228 0
-678 179 0
-678 -161 0
-678 128 0
711 679 -695 0
-711 -679 0
-711 695 0
712 679 0
712 -695 0
712 -711 0
-712 -679 695 711 0
713 680 -696 0
-713 -680 0
-713 696 0
714 -696 -712 0
-714 712 0
-714 696 0
715 680 -712 0
-715 712 0
-715 -680 0
716 -715 0
716 -714 0
716 -713 0
-716 713 714 715 0
717 681 -697 0
-717 -681 0
-717 697 0
718 -697 -716 0
-718 716 0
-718 697 0
719 681 -716 0
-719 716 0
-719 -681 0
720 -719 0
720 -718 0
720 -717 0
-720 717 718 719 0
721 682 -698 0
-721 -682 0
-721 698 0
722 -698 -720 0
-722 720 0
-722 698 0
723 682 -720 0
-723 720 0
-723 -682 0
724 -723 0
724 -722 0
724 -721 0
-724 721 722 723 0
725 683 -699 0
-725 -683 0
-725 699 0
726 -699 -724 0
-726 724 0
-726 699 0
727 683 -724 0
-727 724 0
-727 -683 0
728 -727 0
728 -726 0
728 -725 0
-728 725 726 727 0
729 684 -700 0
-729 -684 0
-729 700 0
730 -700 -728 0
-730 728 0
-730 700 0
731 684 -728 0
-731 728 0
-731 -684 0
732 -731 0
732 -730 0
732 -729 0
-732 729 730 731 0
733 685 -701 0
-733 -685 0
-733 701 0
734 -701 -732 0
-734 732 0
-734 701 0
735 685 -732 0
-735 732 0
-735 -685 0
736 -735 0
736 -734 0
736 -733 0
-736 733 734 735 0
737 686 -702 0
-737 -686 0
-737 702 0
738 -702 -736 0
-738 736 0
-738 702 0
739 686 -736 0
-739 736 0
-739 -686 0
740 -739 0
740 -738 0
740 -737 0
-740 737 738 739 0
741 687 -703 0
-741 -687 0
-741 703 0
742 -703 -740 0
-742 740 0
-742 703 0
743 687 -740 0
-743 740 0
-743 -687 0
744 -743 0
744 -742 0
744 -741 0
-744 741 742 743 0
745 688 -704 0
-745 -688 0
-745 704 0
746 -704 -744 0
-746 744 0
-746 704 0
747 688 -744 0
-747 744 0
-747 -688 0
748 -747 0
748 -746 0
748 -745 0
-748 745 746 747 0
749 689 -705 0
-749 -689 0
-749 705 0
750 -705 -748 0
-750 748 0
-750 705 0
751 689 -748 0
-751 748 0
-751 -689 0
752 -751 0
752 -750 0
752 -749 0
-752 749 750 751 0
753 690 -706 0
-753 -690 0
-753 706 0
754 -706 -752 0
-754 752 0
-754 706 0
755 690 -752 0
-755 752 0
-755 -690 0
756 -755 0
756 -754 0
756 -753 0
-756 753 754 755 0
757 691 -707 0
-757 -691 0
-757 707 0
758 -707 -756 0
-758 756 0
-758 707 0
759 691 -756 0
-759 756 0
-759 -691 0
760 -759 0
760 -758 0
760 -757 0
-760 757 758 759 0
761 692 -708 0
-761 -692 0
-761 708 0
762 -708 -760 0
-762 760 0
-762 708 0
763 692 -760 0
-763 760 0
-763 -692 0
764 -763 0
764 -762 0
764 -761 0
-764 761 762 763 0
765 693 -709 0
-765 -693 0
-765 709 0
766 -709 -764 0
-766 764 0
-766 709 0
767 693 -764 0
-767 764 0
-767 -693 0
768 -767 0
768 -766 0
768 -765 0
-768 765 766 767 0
769 694 -710 0
-769 -694 0
-769 710 0
770 -710 -768 0
-770 768 0
-770 710 0
771 694 -768 0
-771 768 0
-771 -694 0
772 -771 0
772 -770 0
772 -769 0
-772 769 770 771 0
774 0
-774 772 -773 0
807 775 -791 0
-807 -775 0
-807 791 0
808 775 0
808 -791 0
808 -807 0
-808 -775 791 807 0
809 776 -792 0
-809 -776 0
-809 792 0
810 -792 -808 0
-810 808 0
-810 792 0
811 776 -808 0
-811 808 0
-811 -776 0
812 -811 0
812 -810 0
812 -809 0
-812 809 810 811 0
813 777 -793 0
-813 -777 0
-813 793 0
814 -793 -812 0
-814 812 0
-814 793 0
815 777 -812 0
-815 812 0
-815 -777 0
816 -815 0
816 -814 0
816 -813 0
-816 813 814 815 0
817 778 -794 0
-817 -778 0
-817 794 0
818 -794 -816 0
-818 816 0
-818 794 0
819 778 -816 0
-819 816 0
-819 -778 0
820 -819 0
820 -818 0
820 -817 0
-820 817 818 819 0
821 779 -795 0
-821 -779 0
-821 795 0
822 -795 -820 0
-822 820 0
-822 795 0
823 779 -820 0
-823 820 0
-823 -779 0
824 -823 0
824 -822 0
824 -821 0
-824 821 822 823 0
825 780 -796 0
-825 -780 0
-825 796 0
826 -796 -824 0
-826 824 0
-826 796 0
827 780 -824 0
-827 824 0
-827 -780 0
828 -827 0
828 -826 0
828 -825 0
-828 825 826 827 0
829 781 -797 0
-829 -781 0
-829 797 0
830 -797 -828 0
-830 828 0
-830 797 0
831 781 -828 0
-831 828 0
-831 -781 0
832 -831 0
832 -830 0
832 -829 0
-832 829 830 831 0
833 782 -798 0
-833 -782 0
-833 798 0
834 -798 -832 0
-834 832 0
-834 798 0
835 782 -832 0
-835 832 0
-835 -782 0
836 -835 0
836 -834 0
836 -833 0
-836 833 834 835 0
837 783 -799 0
-837 -783 0
-837 799 0
838 -799 -836 0
-838 836 0
-838 799 0
839 783 -836 0
-839 836 0
-839 -783 0
840 -839 0
840 -838 0
840 -837 0
-840 837 838 839 0
841 784 -800 0
-841 -784 0
-841 800 0
842 -800 -840 0
-842 840 0
-842 800 0
843 784 -840 0
-843 840 0
-843 -784 0
844 -843 0
844 -842 0
844 -841 0
-844 841 842 843 0
845 785 -801 0
-845 -785 0
-845 801 0
846 -801 -844 0
-846 844 0
-846 801 0
847 785 -844 0
-847 844 0
-847 -785 0
848 -847 0
848 -846 0
848 -845 0
-848 845 846 847 0
849 786 -802 0
-849 -786 0
-849 802 0
850 -802 -848 0
-850 848 0
-850 802 0
851 786 -848 0
-851 848 0
-851 -786 0
852 -851 0
852 -850 0
852 -849 0
-852 849 850 851 0
853 787 -803 0
-853 -787 0
-853 803 0
854 -803 -852 0
-854 852 0
-854 803 0
855 787 -852 0
-855 852 0
-855 -787 0
856 -855 0
856 -854 0
856 -853 0
-856 853 854 855 0
857 788 -804 0
-857 -788 0
-857 804 0
858 -804 -856 0
-858 856 0
-858 804 0
859 788 -856 0
-859 856 0
-859 -788 0
860 -859 0
860 -858 0
860 -857 0
-860 857 858 859 0
861 789 -805 0
-861 -789 0
-861 805 0
862 -805 -860 0
-862 860 0
-862 805 0
863 789 -860 0
-863 860 0
-863 -789 0
864 -863 0
864 -862 0
864 -861 0
-864 861 862 863 0
865 790 -806 0
-865 -790 0
-865 806 0
866 -806 -864 0
-866 864 0
-866 806 0
867 790 -864 0
-867 864 0
-867 -790 0
868 -867 0
868 -866 0
868 -865 0
-868 865 866 867 0
870 0
-870 868 -869 0
871 -678 0
871 772 868 0
-871 -868 0
-871 -772 0
872 1 -33 0
872 -1 33 0
-872 1 33 0
-872 -1 -33 0
873 2 -34 0
873 -2 34 0
-873 2 34 0
-873 -2 -34 0
874 3 -35 0
874 -3 35 0
-874 3 35 0
-874 -3 -35 0
875 4 -36 0
875 -4 36 0
-875 4 36 0
-875 -4 -36 0
876 5 -37 0
876 -5 37 0
-876 5 37 0
-876 -5 -37 0
877 6 -38 0
877 -6 38 0
-877 6 38 0
-877 -6 -38 0
878 7 -39 0
878 -7 39 0
-878 7 39 0
-878 -7 -39 0
879 8 -40 0
879 -8 40 0
-879 8 40 0
-879 -8 -40 0
880 9 -41 0
880 -9 41 0
-880 9 41 0
-880 -9 -41 0
881 10 -42 0
881 -10 42 0
-881 10 42 0
-881 -10 -42 0
882 11 -43 0
882 -11 43 0
-882 11 43 0
-882 -11 -43 0
883 12 -44 0
883 -12 44 0
-883 12 44 0
-883 -12 -44 0
884 13 -45 0
884 -13 45 0
-884 13 45 0
-884 -13 -45 0
885 14 -46 0
885 -14 46 0
-885 14 46 0
-885 -14 -46 0
886 15 -47 0
886 -15 47 0
-886 15 47 0
-886 -15 -47 0
887 16 -48 0
887 -16 48 0
-887 16 48 0
-887 -16 -48 0
888 872 873 874 875 876 877 878 879 880 881 882 883 884 885 886 887 0
-888 -887 0
-888 -886 0
-888 -885 0
-888 -884 0
-888 -883 0
-888 -882 0
-888 -881 0
-888 -880 0
-888 -879 0
-888 -878 0
-888 -877 0
-888 -876 0
-888 -875 0
-888 -874 0
-888 -873 0
-888 -872 0
889 679 -695 0
889 -679 695 0
-889 679 695 0
-889 -679 -695 0
890 680 -696 0
890 -680 696 0
-890 680 696 0
-890 -680 -696 0
891 681 -697 0
891 -681 697 0
-891 681 697 0
-891 -681 -697 0
892 682 -698 0
892 -682 698 0
-892 682 698 0
-892 -682 -698 0
893 683 -699 0
893 -683 699 0
-893 683 699 0
-893 -683 -699 0
894 684 -700 0
894 -684 700 0
-894 684 700 0
-894 -684 -700 0
895 685 -701 0
895 -685 701 0
-895 685 701 0
-895 -685 -701 0
896 686 -702 0
896 -686 702 0
-896 686 702 0
-896 -686 -702 0
897 687 -703 0
897 -687 703 0
-897 687 703 0
-897 -687 -703 0
898 688 -704 0
898 -688 704 0
-898 688 704 0
-898 -688 -704 0
899 689 -705 0
899 -689 705 0
-899 689 705 0
-899 -689 -705 0
900 690 -706 0
900 -690 706 0
-900 690 706 0
-900 -690 -706 0
901 691 -707 0
901 -691 707 0
-901 691 707 0
-901 -691 -707 0
902 692 -708 0
902 -692 708 0
-902 692 708 0
-902 -692 -708 0
903 693 -709 0
903 -693 709 0
-903 693 709 0
-903 -693 -709 0
904 694 -710 0
904 -694 710 0
-904 694 710 0
-904 -694 -710 0
905 -888 0
905 889 890 891 892 893 894 895 896 897 898 899 900 901 902 903 904 0
-905 -904 0
-905 -903 0
-905 -902 0
-905 -901 0
-905 -900 0
-905 -899 0
-905 -898 0
-905 -897 0
-905 -896 0
-905 -895 0
-905 -894 0
-905 -893 0
-905 -892 0
-905 -891 0
-905 -890 0
-905 -889 0
906 17 -49 0
906 -17 49 0
-906 17 49 0
-906 -17 -49 0
907 18 -50 0
907 -18 50 0
-907 18 50 0
-907 -18 -50 0
908 19 -51 0
908 -19 51 0
-908 19 51 0
-908 -19 -51 0
909 20 -52 0
909 -20 52 0
-909 20 52 0
-909 -20 -52 0
910 21 -53 0
910 -21 53 0
-910 21 53 0
-910 -21 -53 0
911 22 -54 0
911 -22 54 0
-911 22 54 0
-911 -22 -54 0
912 23 -55 0
912 -23 55 0
-912 23 55 0
-912 -23 -55 0
913 24 -56 0
913 -24 56 0
-913 24 56 0
-913 -24 -56 0
914 25 -57 0
914 -25 57 0
-914 25 57 0
-914 -25 -57 0
915 26 -58 0
915 -26 58 0
-915 26 58 0
-915 -26 -58 0
916 27 -59 0
916 -27 59 0
-916 27 59 0
-916 -27 -59 0
917 28 -60 0
917 -28 60 0
-917 28 60 0
-917 -28 -60 0
918 29 -61 0
918 -29 61 0
-918 29 61 0
-918 -29 -61 0
919 30 -62 0
919 -30 62 0
-919 30 62 0
-919 -30 -62 0
920 31 -63 0
920 -31 63 0
-920 31 63 0
-920 -31 -63 0
921 32 -64 0
921 -32 64 0
-921 32 64 0
-921 -32 -64 0
922 906 907 908 909 910 911 912 913 914 915 916 917 918 919 920 921 0
-922 -921 0
-922 -920 0
-922 -919 0
-922 -918 0
-922 -917 0
-922 -916 0
-922 -915 0
-922 -914 0
-922 -913 0
-922 -912 0
-922 -911 0
-922 -910 0
-922 -909 0
-922 -908 0
-922 -907 0
-922 -906 0
923 775 -791 0
923 -775 791 0
-923 775 791 0
-923 -775 -791 0
924 776 -792 0
924 -776 792 0
-924 776 792 0
-924 -776 -792 0
925 777 -793 0
925 -777 793 0
-925 777 793 0
-925 -777 -793 0
926 778 -794 0
926 -778 794 0
-926 778 794 0
-926 -778 -794 0
927 779 -795 0
927 -779 795 0
-927 779 795 0
-927 -779 -795 0
928 780 -796 0
928 -780 796 0
-928 780 796 0
-928 -780 -796 0
929 781 -797 0
929 -781 797 0
-929 781 797 0
-929 -781 -797 0
930 782 -798 0
930 -782 798 0
-930 782 798 0
-930 -782 -798 0
931 783 -799 0
931 -783 799 0
-931 783 799 0
-931 -783 -799 0
932 784 -800 0
932 -784 800 0
-932 784 800 0
-932 -784 -800 0
933 785 -801 0
933 -785 801 0
-933 785 801 0
-933 -785 -801 0
934 786 -802 0
934 -786 802 0
-934 786 802 0
-934 -786 -802 0
935 787 -803 0
935 -787 803 0
-935 787 803 0
-935 -787 -803 0
936 788 -804 0
936 -788 804 0
-936 788 804 0
-936 -788 -804 0
937 789 -805 0
937 -789 805 0
-937 789 805 0
-937 -789 -805 0
938 790 -806 0
938 -790 806 0
-938 790 806 0
-938 -790 -806 0
939 -922 0
939 923 924 925 926 927 928 929 930 931 932 933 934 935 936 937 938 0
-939 -938 0
-939 -937 0
-939 -936 0
-939 -935 0
-939 -934 0
-939 -933 0
-939 -932 0
-939 -931 0
-939 -930 0
-939 -929 0
-939 -928 0
-939 -927 0
-939 -926 0
-939 -925 0
-939 -924 0
-939 -923 0
